unsat
(define-fun f ((x0 (BitVec 64)) (x1 (BitVec 64))) (BitVec 64) (bvadd x0 x1))
(define-fun f ((x0 (BitVec 64)) (x1 (BitVec 64))) (BitVec 64) (bvadd x0 x1))
int-arith39.sl running time : 0 m .084092735 s
times : .084092735
